Gurobi 12.0.1:   lim:time = 28800
  mip:bestbound = 1
Set parameter LogToConsole to value 1
  tech:outlev = 1
Set parameter InfUnbdInfo to value 1
Gurobi Optimizer version 12.0.1 build v12.0.1rc0 (win64 - Windows 11.0 (22631.2))

CPU model: Intel(R) Core(TM) i7-10700 CPU @ 2.90GHz, instruction set [SSE2|AVX|AVX2]
Thread count: 8 physical cores, 16 logical processors, using up to 16 threads

Non-default parameters:
TimeLimit  28800
InfUnbdInfo  1

Optimize a model with 214163 rows, 80876 columns and 2898491 nonzeros
Model fingerprint: 0xe53e7248
Model has 20680 quadratic objective terms
Model has 31630 quadratic constraints
Model has 100 simple general constraints
  100 MAX
Variable types: 1719 continuous, 79157 integer (0 binary)
Coefficient statistics:
  Matrix range     [1e+00, 1e+03]
  QMatrix range    [1e+00, 8e+01]
  QLMatrix range   [1e+00, 1e+03]
  Objective range  [1e+01, 2e+03]
  QObjective range [2e+02, 2e+03]
  Bounds range     [1e+00, 1e+03]
  RHS range        [1e+00, 2e+03]
  QRHS range       [8e+01, 1e+03]
Presolve removed 42273 rows and 11909 columns (presolve time = 5s)...
Presolve removed 46920 rows and 12009 columns (presolve time = 10s)...
Presolve removed 24988 rows and 12037 columns
Presolve time: 14.44s
Presolved: 4699963 rows, 3289823 columns, 16800405 nonzeros
Presolved model has 210 SOS constraint(s)
Variable types: 1922051 continuous, 1367772 integer (1367567 binary)
Deterministic concurrent LP optimizer: primal simplex, dual simplex, and barrier
Showing barrier log only...

Root barrier log...

Elapsed ordering time = 7s
Elapsed ordering time = 10s
Ordering time: 10.75s

Barrier performed 0 iterations in 460.16 seconds (459.12 work units)
Barrier solve interrupted - model solved by another algorithm

Concurrent spin time: 27.84s (can be avoided by choosing Method=3)

Solved with dual simplex

Root simplex log...

Iteration    Objective       Primal Inf.    Dual Inf.      Time
    7882    4.3506240e+03   0.000000e+00   0.000000e+00    462s

Use crossover to convert LP symmetric solution to basic solution...

Root crossover log...

     584 DPushes remaining with DInf 0.0000000e+00               464s
       0 DPushes remaining with DInf 0.0000000e+00               465s

     315 PPushes remaining with PInf 0.0000000e+00               465s
       0 PPushes remaining with PInf 0.0000000e+00               465s

  Push phase complete: Pinf 0.0000000e+00, Dinf 8.5487173e-15    465s


Root simplex log...

Iteration    Objective       Primal Inf.    Dual Inf.      Time
    8361    4.3506240e+03   0.000000e+00   0.000000e+00    466s

Root relaxation: objective 4.350624e+03, 8361 iterations, 61.90 seconds (31.15 work units)
Total elapsed time = 466.46s (DegenMoves)
Total elapsed time = 472.96s (DegenMoves)
Total elapsed time = 478.21s (DegenMoves)
Total elapsed time = 482.49s (DegenMoves)

    Nodes    |    Current Node    |     Objective Bounds      |     Work
 Expl Unexpl |  Obj  Depth IntInf | Incumbent    BestBd   Gap | It/Node Time

     0     0 4350.62397    0  103          - 4350.62397      -     -  488s
     0     0 4521.40876    0  193          - 4521.40876      -     -  579s
     0     0 4522.44428    0  194          - 4522.44428      -     -  608s
     0     0 4522.44509    0  196          - 4522.44509      -     -  613s
     0     0 4569.50804    0  177          - 4569.50804      -     -  644s
     0     0 4569.50804    0  176          - 4569.50804      -     -  660s
     0     0 4581.74198    0  186          - 4581.74198      -     -  685s
     0     0 4582.20681    0  181          - 4582.20681      -     -  744s
     0     0 4591.60784    0  166          - 4591.60784      -     - 1142s
     0     0 4591.75070    0  175          - 4591.75070      -     - 1167s
     0     0 4592.21015    0  175          - 4592.21015      -     - 1181s
     0     0 4592.21015    0  171          - 4592.21015      -     - 1199s
     0     0 4592.21015    0  170          - 4592.21015      -     - 1211s
     0     0 4592.21015    0  166          - 4592.21015      -     - 1227s
     0     0 4592.21015    0  108          - 4592.21015      -     - 1285s
     0     0 4592.21015    0  138          - 4592.21015      -     - 1311s
     0     0 4592.21015    0  108          - 4592.21015      -     - 1360s
     0     0 4592.21015    0  108          - 4592.21015      -     - 1392s
     0     2 4603.15636    0  108          - 4603.15636      -     - 1685s
     1     5 4609.62203    1  102          - 4603.15636      -   605 1694s
     3     8 4612.78989    2  100          - 4612.78989      -   364 1705s
     7    16 4616.62165    3  100          - 4612.80912      -   436 1722s

Cutting planes:
  Learned: 3
  Gomory: 5
  Lift-and-project: 1
  Cover: 32
  Implied bound: 70
  Clique: 5
  MIR: 25
  StrongCG: 2
  GUB cover: 14
  Zero half: 8
  RLT: 13
  Relax-and-lift: 382

Explored 15 nodes (74619 simplex iterations) in 1734.46 seconds (1456.85 work units)
Thread count was 16 (of 16 available processors)

Solution count 0

Solve interrupted (error code 10001)
Best objective -, best bound 4.617187037928e+03, gap -

AMPL MP initial flat model has 80703 variables (205 integer, 78952 binary);
Objectives: 1 quadratic; 
Constraints:  214163 linear; 31630 quadratic;
Algebraic expressions:  100 max;

AMPL MP final model has 80876 variables (205 integer, 78952 binary);
Objectives: 1 quadratic; 
Constraints:  214163 linear; 31630 quadratic;
Algebraic expressions:  100 max;


Gurobi 12.0.1: Call failed: 'GRBoptimize(model())' with code 10001,
Gurobi message: Out of memory
Error at _cmdno 6 executing "printf" command
(file C:\Users\user\python\shan-ampl-runner\ME\runfiles\data_100\C102-100.run, line 36, offset 752):

	can't open "ampl_outputs/data_100/C102-100.txt"
